docs/files/other/snack_lpsolve_1743971125.lp.sol

Value of objective function: 2000.00000000

Actual values of the variables:
X01                       561.039
X02                       1193.65
X03                       322.373

Actual values of the constraints:
R1                            100
R2                           2000
R3                             40
